c File: instances/10_0.20_1.col
c
c Description: Random graph of size 10 vertices and P(0.2) of edges between any two vertices.
p col 10 45
e 1 2
e 1 7
e 1 8
e 1 9
e 2 3
e 2 5
e 2 9
e 4 5
e 4 6
e 6 7
e 7 10
e 8 9